(set-info :source |printed by MathSAT|)
(declare-fun |.x{561}| () Int)
(declare-fun |.y{55}| () Int)
(declare-fun |.y{31}| () Int)
(declare-fun |.y{56}| () Int)
(declare-fun |.y{32}| () Int)
(declare-fun |.y{57}| () Int)
(declare-fun |.x{562}| () (Array Int Int))
(declare-fun |.y{58}| () (Array Int Int))
(declare-fun |.x{565}| () Int)
(declare-fun |.y{59}| () Int)
(declare-fun |.x{566}| () (Array Int Int))
(declare-fun |.y{60}| () (Array Int Int))
(declare-fun |.x{564}| () Int)
(declare-fun |.y{61}| () Int)
(declare-fun |.x{558}| () Int)
(declare-fun |.y{62}| () Int)
(declare-fun |.y{33}| () Int)
(declare-fun |.y{63}| () Int)
(declare-fun |.y{34}| () Int)
(declare-fun |.y{64}| () Int)
(declare-fun |.y{35}| () Int)
(declare-fun |.y{65}| () Int)
(declare-fun |.y{36}| () Int)
(declare-fun |.y{66}| () Int)
(declare-fun |.y{37}| () Int)
(declare-fun |.y{67}| () Int)
(declare-fun |.y{38}| () (Array Int Int))
(declare-fun |.y{68}| () (Array Int Int))
(declare-fun |.y{39}| () (Array Int Int))
(declare-fun |.y{69}| () (Array Int Int))
(declare-fun |.y{40}| () (Array Int Int))
(declare-fun |.y{70}| () (Array Int Int))
(declare-fun |.y{41}| () (Array Int Int))
(declare-fun |.y{71}| () (Array Int Int))
(declare-fun |.y{42}| () (Array Int Int))
(declare-fun |.y{72}| () (Array Int Int))
(declare-fun |.y{43}| () (Array Int Int))
(declare-fun |.y{73}| () (Array Int Int))
(declare-fun |.y{44}| () Int)
(declare-fun |.y{74}| () Int)
(declare-fun |.y{45}| () Int)
(declare-fun |.y{75}| () Int)
(declare-fun |.y{46}| () Int)
(declare-fun |.y{76}| () Int)
(declare-fun |.y{47}| () Int)
(declare-fun |.y{77}| () Int)
(declare-fun |.y{48}| () Int)
(declare-fun |.y{78}| () Int)
(declare-fun |.y{49}| () Int)
(declare-fun |.y{79}| () Int)
(declare-fun |.y{50}| () (Array Int Int))
(declare-fun |.y{80}| () (Array Int Int))
(declare-fun |.y{51}| () (Array Int Int))
(declare-fun |.y{81}| () (Array Int Int))
(declare-fun |.y{52}| () (Array Int Int))
(declare-fun |.y{82}| () (Array Int Int))
(declare-fun |.y{53}| () (Array Int Int))
(declare-fun |.y{83}| () (Array Int Int))
(declare-fun |.y{54}| () (Array Int Int))
(declare-fun |.y{84}| () (Array Int Int))
(declare-fun |.loc{5}| () Bool)
(declare-fun |.loc{9}| () Bool)
(declare-fun |.loc{6}| () Bool)
(declare-fun |.loc{10}| () Bool)
(declare-fun |.loc{7}| () Bool)
(declare-fun |.loc{11}| () Bool)
(declare-fun |.loc{8}| () Bool)
(declare-fun |.loc{12}| () Bool)
(declare-fun |.x{52}| () Int)
(declare-fun |.x{567}| () Int)
(declare-fun |.x{563}| () Int)
(define-fun .def_68 () Bool (! |.loc{5}| :next |.loc{9}|))
(define-fun .def_188 () Bool (not .def_68))
(define-fun .def_70 () Bool (! |.loc{6}| :next |.loc{10}|))
(define-fun .def_113 () Bool (not .def_70))
(define-fun .def_640 () Bool (and .def_113 .def_188))
(define-fun .def_72 () Bool (! |.loc{7}| :next |.loc{11}|))
(define-fun .def_122 () Bool (not .def_72))
(define-fun .def_641 () Bool (and .def_122 .def_640))
(define-fun .def_74 () Bool (! |.loc{8}| :next |.loc{12}|))
(define-fun .def_108 () Bool (not .def_74))
(define-fun .def_642 () Bool (! (and .def_108 .def_641) :init true))
(define-fun .def_84 () Bool (not |.loc{10}|))
(define-fun .def_623 () Bool (and |.loc{12}| .def_84))
(define-fun .def_14 () (Array Int Int) (! |.x{562}| :next |.y{58}|))
(define-fun .def_570 () Int (select .def_14 |.x{563}|))
(define-fun .def_18 () (Array Int Int) (! |.x{566}| :next |.y{60}|))
(define-fun .def_569 () Int (select .def_18 |.x{567}|))
(define-fun .def_571 () Bool (= .def_569 .def_570))
(define-fun .def_610 () Bool (not .def_571))
(define-fun .def_16 () Int (! |.x{565}| :next |.y{59}|))
(define-fun .def_136 () Bool (<= .def_16 0))
(define-fun .def_142 () Bool (not .def_136))
(define-fun .def_608 () Bool (and |.loc{9}| .def_142))
(define-fun .def_148 () Int (* (- 1) |.x{563}|))
(define-fun .def_20 () Int (! |.x{564}| :next |.y{61}|))
(define-fun .def_224 () Int (+ .def_20 .def_148))
(define-fun .def_8 () Int (! |.x{561}| :next |.y{55}|))
(define-fun .def_566 () Int (+ .def_8 .def_224))
(define-fun .def_567 () Bool (= .def_566 0))
(define-fun .def_609 () Bool (and .def_567 .def_608))
(define-fun .def_611 () Bool (and .def_609 .def_610))
(define-fun .def_160 () Int (* (- 1) |.x{567}|))
(define-fun .def_238 () Int (+ .def_20 .def_160))
(define-fun .def_576 () Int (+ .def_16 .def_238))
(define-fun .def_577 () Bool (= .def_576 0))
(define-fun .def_612 () Bool (and .def_577 .def_611))
(define-fun .def_22 () Int (! |.x{558}| :next |.y{62}|))
(define-fun .def_581 () Bool (<= .def_22 .def_20))
(define-fun .def_582 () Bool (not .def_581))
(define-fun .def_613 () Bool (and .def_582 .def_612))
(define-fun .def_586 () Bool (<= .def_8 0))
(define-fun .def_154 () Bool (<= |.x{563}| 0))
(define-fun .def_155 () Bool (not .def_154))
(define-fun .def_587 () Bool (or .def_155 .def_586))
(define-fun .def_614 () Bool (and .def_587 .def_613))
(define-fun .def_590 () Bool (not .def_586))
(define-fun .def_615 () Bool (and .def_590 .def_614))
(define-fun .def_616 () Bool (and .def_74 .def_615))
(define-fun .def_617 () Bool (and .def_188 .def_616))
(define-fun .def_618 () Bool (and .def_113 .def_617))
(define-fun .def_619 () Bool (and .def_122 .def_618))
(define-fun .def_134 () Bool (<= |.x{567}| 0))
(define-fun .def_135 () Bool (not .def_134))
(define-fun .def_137 () Bool (or .def_135 .def_136))
(define-fun .def_620 () Bool (and .def_137 .def_619))
(define-fun .def_244 () Bool (not |.loc{9}|))
(define-fun .def_597 () Bool (and .def_108 .def_244))
(define-fun .def_301 () Bool (= |.y{61}| 0))
(define-fun .def_598 () Bool (and .def_301 .def_597))
(define-fun .def_46 () Int (! |.y{44}| :next |.y{74}|))
(define-fun .def_530 () Bool (<= .def_46 .def_20))
(define-fun .def_599 () Bool (and .def_530 .def_598))
(define-fun .def_110 () Bool (= .def_8 |.y{55}|))
(define-fun .def_600 () Bool (and .def_110 .def_599))
(define-fun .def_601 () Bool (and .def_68 .def_600))
(define-fun .def_258 () Bool (= .def_14 |.y{58}|))
(define-fun .def_602 () Bool (and .def_258 .def_601))
(define-fun .def_603 () Bool (and .def_70 .def_602))
(define-fun .def_604 () Bool (and .def_72 .def_603))
(define-fun .def_366 () Bool (= |.y{59}| .def_22))
(define-fun .def_605 () Bool (and .def_366 .def_604))
(define-fun .def_34 () (Array Int Int) (! |.y{38}| :next |.y{68}|))
(define-fun .def_369 () Bool (= |.y{60}| .def_34))
(define-fun .def_606 () Bool (and .def_369 .def_605))
(define-fun .def_373 () Bool (= |.y{62}| .def_46))
(define-fun .def_607 () Bool (and .def_373 .def_606))
(define-fun .def_621 () Bool (or .def_607 .def_620))
(define-fun .def_568 () Bool (and .def_142 .def_567))
(define-fun .def_572 () Bool (and .def_568 .def_571))
(define-fun .def_216 () Int (* (- 1) |.y{61}|))
(define-fun .def_217 () Int (+ .def_20 .def_216))
(define-fun .def_218 () Bool (= .def_217 (- 1)))
(define-fun .def_573 () Bool (and .def_218 .def_572))
(define-fun .def_574 () Bool (and .def_244 .def_573))
(define-fun .def_578 () Bool (and .def_574 .def_577))
(define-fun .def_94 () Bool (= .def_16 |.y{59}|))
(define-fun .def_579 () Bool (and .def_94 .def_578))
(define-fun .def_231 () Bool (= .def_18 |.y{60}|))
(define-fun .def_580 () Bool (and .def_231 .def_579))
(define-fun .def_583 () Bool (and .def_580 .def_582))
(define-fun .def_100 () Bool (= .def_22 |.y{62}|))
(define-fun .def_584 () Bool (and .def_100 .def_583))
(define-fun .def_585 () Bool (and .def_110 .def_584))
(define-fun .def_588 () Bool (and .def_585 .def_587))
(define-fun .def_589 () Bool (and .def_258 .def_588))
(define-fun .def_591 () Bool (and .def_589 .def_590))
(define-fun .def_592 () Bool (and .def_74 .def_591))
(define-fun .def_593 () Bool (and .def_188 .def_592))
(define-fun .def_594 () Bool (and .def_113 .def_593))
(define-fun .def_595 () Bool (and .def_122 .def_594))
(define-fun .def_596 () Bool (and .def_137 .def_595))
(define-fun .def_622 () Bool (or .def_596 .def_621))
(define-fun .def_624 () Bool (and .def_622 .def_623))
(define-fun .def_88 () Bool (not |.loc{11}|))
(define-fun .def_625 () Bool (and .def_88 .def_624))
(define-fun .def_58 () (Array Int Int) (! |.y{50}| :next |.y{80}|))
(define-fun .def_553 () Bool (= |.y{68}| .def_58))
(define-fun .def_527 () Bool (and |.loc{9}| |.loc{10}|))
(define-fun .def_528 () Bool (and |.loc{11}| .def_527))
(define-fun .def_120 () Bool (not |.loc{12}|))
(define-fun .def_551 () Bool (and .def_120 .def_528))
(define-fun .def_552 () Bool (and .def_108 .def_551))
(define-fun .def_554 () Bool (and .def_552 .def_553))
(define-fun .def_48 () Int (! |.y{45}| :next |.y{75}|))
(define-fun .def_497 () Bool (<= .def_48 .def_20))
(define-fun .def_555 () Bool (and .def_497 .def_554))
(define-fun .def_556 () Bool (and .def_301 .def_555))
(define-fun .def_557 () Bool (and .def_110 .def_556))
(define-fun .def_558 () Bool (and .def_258 .def_557))
(define-fun .def_559 () Bool (and .def_70 .def_558))
(define-fun .def_560 () Bool (and .def_72 .def_559))
(define-fun .def_561 () Bool (and .def_366 .def_560))
(define-fun .def_378 () Bool (= |.y{74}| .def_48))
(define-fun .def_562 () Bool (and .def_378 .def_561))
(define-fun .def_563 () Bool (and .def_188 .def_562))
(define-fun .def_564 () Bool (and .def_369 .def_563))
(define-fun .def_565 () Bool (and .def_373 .def_564))
(define-fun .def_626 () Bool (or .def_565 .def_625))
(define-fun .def_531 () Bool (not .def_530))
(define-fun .def_209 () Int (select .def_18 |.x{563}|))
(define-fun .def_210 () (Array Int Int) (store .def_34 |.x{567}| .def_209))
(define-fun .def_211 () Bool (= |.y{68}| .def_210))
(define-fun .def_529 () Bool (and .def_211 .def_528))
(define-fun .def_532 () Bool (and .def_529 .def_531))
(define-fun .def_225 () Int (+ .def_16 .def_224))
(define-fun .def_226 () Bool (= .def_225 0))
(define-fun .def_533 () Bool (and .def_226 .def_532))
(define-fun .def_534 () Bool (and .def_218 .def_533))
(define-fun .def_228 () Bool (or .def_136 .def_155))
(define-fun .def_535 () Bool (and .def_228 .def_534))
(define-fun .def_536 () Bool (and .def_94 .def_535))
(define-fun .def_537 () Bool (and .def_231 .def_536))
(define-fun .def_538 () Bool (and .def_100 .def_537))
(define-fun .def_240 () Int (+ .def_22 .def_160))
(define-fun .def_241 () Int (+ .def_20 .def_240))
(define-fun .def_242 () Bool (= .def_241 0))
(define-fun .def_539 () Bool (and .def_242 .def_538))
(define-fun .def_246 () Bool (<= .def_22 0))
(define-fun .def_247 () Bool (or .def_135 .def_246))
(define-fun .def_540 () Bool (and .def_247 .def_539))
(define-fun .def_251 () Bool (not .def_246))
(define-fun .def_541 () Bool (and .def_251 .def_540))
(define-fun .def_542 () Bool (and .def_108 .def_541))
(define-fun .def_543 () Bool (and .def_110 .def_542))
(define-fun .def_254 () Bool (= .def_46 |.y{74}|))
(define-fun .def_544 () Bool (and .def_254 .def_543))
(define-fun .def_545 () Bool (and .def_68 .def_544))
(define-fun .def_546 () Bool (and .def_70 .def_545))
(define-fun .def_547 () Bool (and .def_258 .def_546))
(define-fun .def_548 () Bool (and .def_72 .def_547))
(define-fun .def_549 () Bool (and .def_120 .def_548))
(define-fun .def_550 () Bool (and .def_142 .def_549))
(define-fun .def_627 () Bool (or .def_550 .def_626))
(define-fun .def_60 () (Array Int Int) (! |.y{51}| :next |.y{81}|))
(define-fun .def_524 () Bool (= |.y{68}| .def_60))
(define-fun .def_50 () Int (! |.y{46}| :next |.y{76}|))
(define-fun .def_350 () Bool (= |.y{75}| .def_50))
(define-fun .def_207 () Bool (= .def_58 |.y{80}|))
(define-fun .def_413 () Bool (and .def_207 .def_350))
(define-fun .def_509 () Bool (and |.loc{10}| .def_413))
(define-fun .def_510 () Bool (and |.loc{11}| .def_509))
(define-fun .def_511 () Bool (and .def_244 .def_510))
(define-fun .def_512 () Bool (and .def_108 .def_511))
(define-fun .def_513 () Bool (and .def_301 .def_512))
(define-fun .def_514 () Bool (and .def_110 .def_513))
(define-fun .def_515 () Bool (and .def_68 .def_514))
(define-fun .def_516 () Bool (and .def_258 .def_515))
(define-fun .def_517 () Bool (and .def_72 .def_516))
(define-fun .def_518 () Bool (and .def_366 .def_517))
(define-fun .def_519 () Bool (and .def_113 .def_518))
(define-fun .def_520 () Bool (and .def_369 .def_519))
(define-fun .def_521 () Bool (and .def_120 .def_520))
(define-fun .def_522 () Bool (and .def_373 .def_521))
(define-fun .def_523 () Bool (and .def_378 .def_522))
(define-fun .def_525 () Bool (and .def_523 .def_524))
(define-fun .def_458 () Bool (<= .def_50 .def_20))
(define-fun .def_526 () Bool (and .def_458 .def_525))
(define-fun .def_628 () Bool (or .def_526 .def_627))
(define-fun .def_498 () Bool (not .def_497))
(define-fun .def_208 () Bool (and |.loc{10}| .def_207))
(define-fun .def_484 () Bool (and |.loc{11}| .def_208))
(define-fun .def_485 () Bool (and .def_211 .def_484))
(define-fun .def_486 () Bool (and .def_218 .def_485))
(define-fun .def_487 () Bool (and .def_226 .def_486))
(define-fun .def_488 () Bool (and .def_228 .def_487))
(define-fun .def_489 () Bool (and .def_94 .def_488))
(define-fun .def_490 () Bool (and .def_231 .def_489))
(define-fun .def_491 () Bool (and .def_100 .def_490))
(define-fun .def_492 () Bool (and .def_242 .def_491))
(define-fun .def_493 () Bool (and .def_244 .def_492))
(define-fun .def_494 () Bool (and .def_247 .def_493))
(define-fun .def_495 () Bool (and .def_251 .def_494))
(define-fun .def_496 () Bool (and .def_108 .def_495))
(define-fun .def_499 () Bool (and .def_496 .def_498))
(define-fun .def_500 () Bool (and .def_254 .def_499))
(define-fun .def_501 () Bool (and .def_110 .def_500))
(define-fun .def_502 () Bool (and .def_70 .def_501))
(define-fun .def_503 () Bool (and .def_258 .def_502))
(define-fun .def_504 () Bool (and .def_72 .def_503))
(define-fun .def_505 () Bool (and .def_188 .def_504))
(define-fun .def_506 () Bool (and .def_120 .def_505))
(define-fun .def_267 () Bool (= .def_48 |.y{75}|))
(define-fun .def_507 () Bool (and .def_267 .def_506))
(define-fun .def_508 () Bool (and .def_142 .def_507))
(define-fun .def_629 () Bool (or .def_508 .def_628))
(define-fun .def_62 () (Array Int Int) (! |.y{52}| :next |.y{82}|))
(define-fun .def_463 () Bool (= |.y{68}| .def_62))
(define-fun .def_464 () Bool (and .def_350 .def_463))
(define-fun .def_465 () Bool (and |.loc{9}| .def_464))
(define-fun .def_466 () Bool (and .def_207 .def_465))
(define-fun .def_52 () Int (! |.y{47}| :next |.y{77}|))
(define-fun .def_410 () Bool (<= .def_52 .def_20))
(define-fun .def_467 () Bool (and .def_410 .def_466))
(define-fun .def_468 () Bool (and |.loc{11}| .def_467))
(define-fun .def_469 () Bool (and .def_84 .def_468))
(define-fun .def_355 () Bool (= |.y{76}| .def_52))
(define-fun .def_470 () Bool (and .def_355 .def_469))
(define-fun .def_233 () Bool (= .def_60 |.y{81}|))
(define-fun .def_471 () Bool (and .def_233 .def_470))
(define-fun .def_472 () Bool (and .def_108 .def_471))
(define-fun .def_473 () Bool (and .def_301 .def_472))
(define-fun .def_474 () Bool (and .def_110 .def_473))
(define-fun .def_475 () Bool (and .def_258 .def_474))
(define-fun .def_476 () Bool (and .def_72 .def_475))
(define-fun .def_477 () Bool (and .def_366 .def_476))
(define-fun .def_478 () Bool (and .def_188 .def_477))
(define-fun .def_479 () Bool (and .def_113 .def_478))
(define-fun .def_480 () Bool (and .def_369 .def_479))
(define-fun .def_481 () Bool (and .def_120 .def_480))
(define-fun .def_482 () Bool (and .def_373 .def_481))
(define-fun .def_483 () Bool (and .def_378 .def_482))
(define-fun .def_630 () Bool (or .def_483 .def_629))
(define-fun .def_459 () Bool (not .def_458))
(define-fun .def_318 () Bool (and |.loc{9}| .def_207))
(define-fun .def_436 () Bool (and |.loc{11}| .def_318))
(define-fun .def_437 () Bool (and .def_211 .def_436))
(define-fun .def_438 () Bool (and .def_84 .def_437))
(define-fun .def_439 () Bool (and .def_218 .def_438))
(define-fun .def_440 () Bool (and .def_226 .def_439))
(define-fun .def_441 () Bool (and .def_228 .def_440))
(define-fun .def_442 () Bool (and .def_94 .def_441))
(define-fun .def_443 () Bool (and .def_231 .def_442))
(define-fun .def_444 () Bool (and .def_233 .def_443))
(define-fun .def_445 () Bool (and .def_100 .def_444))
(define-fun .def_446 () Bool (and .def_242 .def_445))
(define-fun .def_447 () Bool (and .def_247 .def_446))
(define-fun .def_448 () Bool (and .def_251 .def_447))
(define-fun .def_449 () Bool (and .def_108 .def_448))
(define-fun .def_450 () Bool (and .def_254 .def_449))
(define-fun .def_451 () Bool (and .def_110 .def_450))
(define-fun .def_452 () Bool (and .def_68 .def_451))
(define-fun .def_453 () Bool (and .def_258 .def_452))
(define-fun .def_454 () Bool (and .def_72 .def_453))
(define-fun .def_455 () Bool (and .def_113 .def_454))
(define-fun .def_456 () Bool (and .def_120 .def_455))
(define-fun .def_457 () Bool (and .def_267 .def_456))
(define-fun .def_460 () Bool (and .def_457 .def_459))
(define-fun .def_461 () Bool (and .def_142 .def_460))
(define-fun .def_270 () Bool (= .def_50 |.y{76}|))
(define-fun .def_462 () Bool (and .def_270 .def_461))
(define-fun .def_631 () Bool (or .def_462 .def_630))
(define-fun .def_64 () (Array Int Int) (! |.y{53}| :next |.y{83}|))
(define-fun .def_418 () Bool (= |.y{68}| .def_64))
(define-fun .def_414 () Bool (and |.loc{11}| .def_413))
(define-fun .def_415 () Bool (and .def_84 .def_414))
(define-fun .def_416 () Bool (and .def_355 .def_415))
(define-fun .def_417 () Bool (and .def_233 .def_416))
(define-fun .def_419 () Bool (and .def_417 .def_418))
(define-fun .def_420 () Bool (and .def_244 .def_419))
(define-fun .def_54 () Int (! |.y{48}| :next |.y{78}|))
(define-fun .def_331 () Bool (<= .def_54 .def_20))
(define-fun .def_421 () Bool (and .def_331 .def_420))
(define-fun .def_422 () Bool (and .def_108 .def_421))
(define-fun .def_423 () Bool (and .def_301 .def_422))
(define-fun .def_424 () Bool (and .def_110 .def_423))
(define-fun .def_360 () Bool (= |.y{77}| .def_54))
(define-fun .def_425 () Bool (and .def_360 .def_424))
(define-fun .def_426 () Bool (and .def_68 .def_425))
(define-fun .def_427 () Bool (and .def_70 .def_426))
(define-fun .def_428 () Bool (and .def_258 .def_427))
(define-fun .def_429 () Bool (and .def_366 .def_428))
(define-fun .def_260 () Bool (= .def_62 |.y{82}|))
(define-fun .def_430 () Bool (and .def_260 .def_429))
(define-fun .def_431 () Bool (and .def_369 .def_430))
(define-fun .def_432 () Bool (and .def_120 .def_431))
(define-fun .def_433 () Bool (and .def_122 .def_432))
(define-fun .def_434 () Bool (and .def_373 .def_433))
(define-fun .def_435 () Bool (and .def_378 .def_434))
(define-fun .def_632 () Bool (or .def_435 .def_631))
(define-fun .def_411 () Bool (not .def_410))
(define-fun .def_383 () Bool (and |.loc{11}| .def_207))
(define-fun .def_384 () Bool (and .def_211 .def_383))
(define-fun .def_385 () Bool (and .def_84 .def_384))
(define-fun .def_213 () Bool (= .def_52 |.y{77}|))
(define-fun .def_386 () Bool (and .def_213 .def_385))
(define-fun .def_387 () Bool (and .def_218 .def_386))
(define-fun .def_388 () Bool (and .def_226 .def_387))
(define-fun .def_389 () Bool (and .def_228 .def_388))
(define-fun .def_390 () Bool (and .def_94 .def_389))
(define-fun .def_391 () Bool (and .def_231 .def_390))
(define-fun .def_392 () Bool (and .def_233 .def_391))
(define-fun .def_393 () Bool (and .def_100 .def_392))
(define-fun .def_394 () Bool (and .def_242 .def_393))
(define-fun .def_395 () Bool (and .def_244 .def_394))
(define-fun .def_396 () Bool (and .def_247 .def_395))
(define-fun .def_397 () Bool (and .def_251 .def_396))
(define-fun .def_398 () Bool (and .def_108 .def_397))
(define-fun .def_399 () Bool (and .def_254 .def_398))
(define-fun .def_400 () Bool (and .def_110 .def_399))
(define-fun .def_401 () Bool (and .def_258 .def_400))
(define-fun .def_402 () Bool (and .def_72 .def_401))
(define-fun .def_403 () Bool (and .def_260 .def_402))
(define-fun .def_404 () Bool (and .def_188 .def_403))
(define-fun .def_405 () Bool (and .def_113 .def_404))
(define-fun .def_406 () Bool (and .def_120 .def_405))
(define-fun .def_407 () Bool (and .def_267 .def_406))
(define-fun .def_408 () Bool (and .def_142 .def_407))
(define-fun .def_409 () Bool (and .def_270 .def_408))
(define-fun .def_412 () Bool (and .def_409 .def_411))
(define-fun .def_633 () Bool (or .def_412 .def_632))
(define-fun .def_56 () Int (! |.y{49}| :next |.y{79}|))
(define-fun .def_380 () Bool (= |.y{78}| .def_56))
(define-fun .def_66 () (Array Int Int) (! |.y{54}| :next |.y{84}|))
(define-fun .def_375 () Bool (= |.y{68}| .def_66))
(define-fun .def_351 () Bool (and |.loc{9}| .def_350))
(define-fun .def_352 () Bool (and .def_207 .def_351))
(define-fun .def_353 () Bool (and |.loc{10}| .def_352))
(define-fun .def_354 () Bool (and .def_88 .def_353))
(define-fun .def_356 () Bool (and .def_354 .def_355))
(define-fun .def_357 () Bool (and .def_233 .def_356))
(define-fun .def_358 () Bool (and .def_108 .def_357))
(define-fun .def_359 () Bool (and .def_301 .def_358))
(define-fun .def_361 () Bool (and .def_359 .def_360))
(define-fun .def_362 () Bool (and .def_110 .def_361))
(define-fun .def_363 () Bool (and .def_70 .def_362))
(define-fun .def_364 () Bool (and .def_258 .def_363))
(define-fun .def_365 () Bool (and .def_260 .def_364))
(define-fun .def_367 () Bool (and .def_365 .def_366))
(define-fun .def_368 () Bool (and .def_188 .def_367))
(define-fun .def_370 () Bool (and .def_368 .def_369))
(define-fun .def_371 () Bool (and .def_120 .def_370))
(define-fun .def_372 () Bool (and .def_122 .def_371))
(define-fun .def_374 () Bool (and .def_372 .def_373))
(define-fun .def_376 () Bool (and .def_374 .def_375))
(define-fun .def_274 () Bool (<= .def_56 .def_20))
(define-fun .def_377 () Bool (and .def_274 .def_376))
(define-fun .def_379 () Bool (and .def_377 .def_378))
(define-fun .def_381 () Bool (and .def_379 .def_380))
(define-fun .def_272 () Bool (= .def_64 |.y{83}|))
(define-fun .def_382 () Bool (and .def_272 .def_381))
(define-fun .def_634 () Bool (or .def_382 .def_633))
(define-fun .def_332 () Bool (not .def_331))
(define-fun .def_319 () Bool (and |.loc{10}| .def_318))
(define-fun .def_320 () Bool (and .def_211 .def_319))
(define-fun .def_321 () Bool (and .def_213 .def_320))
(define-fun .def_322 () Bool (and .def_88 .def_321))
(define-fun .def_323 () Bool (and .def_218 .def_322))
(define-fun .def_324 () Bool (and .def_226 .def_323))
(define-fun .def_325 () Bool (and .def_228 .def_324))
(define-fun .def_326 () Bool (and .def_94 .def_325))
(define-fun .def_327 () Bool (and .def_231 .def_326))
(define-fun .def_328 () Bool (and .def_233 .def_327))
(define-fun .def_329 () Bool (and .def_100 .def_328))
(define-fun .def_330 () Bool (and .def_242 .def_329))
(define-fun .def_333 () Bool (and .def_330 .def_332))
(define-fun .def_334 () Bool (and .def_247 .def_333))
(define-fun .def_335 () Bool (and .def_251 .def_334))
(define-fun .def_336 () Bool (and .def_108 .def_335))
(define-fun .def_337 () Bool (and .def_254 .def_336))
(define-fun .def_338 () Bool (and .def_110 .def_337))
(define-fun .def_339 () Bool (and .def_68 .def_338))
(define-fun .def_340 () Bool (and .def_70 .def_339))
(define-fun .def_341 () Bool (and .def_258 .def_340))
(define-fun .def_342 () Bool (and .def_260 .def_341))
(define-fun .def_263 () Bool (= .def_54 |.y{78}|))
(define-fun .def_343 () Bool (and .def_263 .def_342))
(define-fun .def_344 () Bool (and .def_120 .def_343))
(define-fun .def_345 () Bool (and .def_122 .def_344))
(define-fun .def_346 () Bool (and .def_267 .def_345))
(define-fun .def_347 () Bool (and .def_142 .def_346))
(define-fun .def_348 () Bool (and .def_270 .def_347))
(define-fun .def_349 () Bool (and .def_272 .def_348))
(define-fun .def_635 () Bool (or .def_349 .def_634))
(define-fun .def_42 () (Array Int Int) (! |.y{42}| :next |.y{72}|))
(define-fun .def_314 () Bool (= .def_42 |.y{84}|))
(define-fun .def_40 () (Array Int Int) (! |.y{41}| :next |.y{71}|))
(define-fun .def_311 () Bool (= .def_40 |.y{83}|))
(define-fun .def_38 () (Array Int Int) (! |.y{40}| :next |.y{70}|))
(define-fun .def_309 () Bool (= .def_38 |.y{82}|))
(define-fun .def_36 () (Array Int Int) (! |.y{39}| :next |.y{69}|))
(define-fun .def_305 () Bool (= .def_36 |.y{81}|))
(define-fun .def_303 () Bool (= .def_34 |.y{80}|))
(define-fun .def_32 () Int (! |.y{37}| :next |.y{67}|))
(define-fun .def_299 () Bool (= .def_32 |.y{79}|))
(define-fun .def_30 () Int (! |.y{36}| :next |.y{66}|))
(define-fun .def_297 () Bool (= .def_30 |.y{78}|))
(define-fun .def_28 () Int (! |.y{35}| :next |.y{65}|))
(define-fun .def_294 () Bool (= .def_28 |.y{77}|))
(define-fun .def_26 () Int (! |.y{34}| :next |.y{64}|))
(define-fun .def_292 () Bool (= .def_26 |.y{76}|))
(define-fun .def_24 () Int (! |.y{33}| :next |.y{63}|))
(define-fun .def_289 () Bool (= .def_24 |.y{75}|))
(define-fun .def_287 () Bool (= .def_22 |.y{74}|))
(define-fun .def_285 () Bool (= .def_20 |.y{62}|))
(define-fun .def_10 () Int (! |.y{31}| :next |.y{56}|))
(define-fun .def_281 () Bool (= |.y{55}| .def_10))
(define-fun .def_44 () (Array Int Int) (! |.y{43}| :next |.y{73}|))
(define-fun .def_277 () Bool (= |.y{68}| .def_44))
(define-fun .def_278 () Bool (and |.loc{10}| .def_277))
(define-fun .def_279 () Bool (and .def_88 .def_278))
(define-fun .def_12 () Int (! |.y{32}| :next |.y{57}|))
(define-fun .def_139 () Bool (<= .def_32 .def_12))
(define-fun .def_280 () Bool (and .def_139 .def_279))
(define-fun .def_282 () Bool (and .def_280 .def_281))
(define-fun .def_283 () Bool (and .def_94 .def_282))
(define-fun .def_284 () Bool (and .def_231 .def_283))
(define-fun .def_286 () Bool (and .def_284 .def_285))
(define-fun .def_288 () Bool (and .def_286 .def_287))
(define-fun .def_290 () Bool (and .def_288 .def_289))
(define-fun .def_291 () Bool (and .def_244 .def_290))
(define-fun .def_293 () Bool (and .def_291 .def_292))
(define-fun .def_295 () Bool (and .def_293 .def_294))
(define-fun .def_296 () Bool (and .def_108 .def_295))
(define-fun .def_298 () Bool (and .def_296 .def_297))
(define-fun .def_300 () Bool (and .def_298 .def_299))
(define-fun .def_302 () Bool (and .def_300 .def_301))
(define-fun .def_304 () Bool (and .def_302 .def_303))
(define-fun .def_306 () Bool (and .def_304 .def_305))
(define-fun .def_307 () Bool (and .def_68 .def_306))
(define-fun .def_308 () Bool (and .def_258 .def_307))
(define-fun .def_310 () Bool (and .def_308 .def_309))
(define-fun .def_312 () Bool (and .def_310 .def_311))
(define-fun .def_313 () Bool (and .def_113 .def_312))
(define-fun .def_315 () Bool (and .def_313 .def_314))
(define-fun .def_316 () Bool (and .def_120 .def_315))
(define-fun .def_317 () Bool (and .def_122 .def_316))
(define-fun .def_636 () Bool (or .def_317 .def_635))
(define-fun .def_275 () Bool (not .def_274))
(define-fun .def_249 () Bool (= .def_66 |.y{84}|))
(define-fun .def_235 () Bool (= .def_56 |.y{79}|))
(define-fun .def_212 () Bool (and .def_208 .def_211))
(define-fun .def_214 () Bool (and .def_212 .def_213))
(define-fun .def_215 () Bool (and .def_88 .def_214))
(define-fun .def_219 () Bool (and .def_215 .def_218))
(define-fun .def_227 () Bool (and .def_219 .def_226))
(define-fun .def_229 () Bool (and .def_227 .def_228))
(define-fun .def_230 () Bool (and .def_94 .def_229))
(define-fun .def_232 () Bool (and .def_230 .def_231))
(define-fun .def_234 () Bool (and .def_232 .def_233))
(define-fun .def_236 () Bool (and .def_234 .def_235))
(define-fun .def_237 () Bool (and .def_100 .def_236))
(define-fun .def_243 () Bool (and .def_237 .def_242))
(define-fun .def_245 () Bool (and .def_243 .def_244))
(define-fun .def_248 () Bool (and .def_245 .def_247))
(define-fun .def_250 () Bool (and .def_248 .def_249))
(define-fun .def_252 () Bool (and .def_250 .def_251))
(define-fun .def_253 () Bool (and .def_108 .def_252))
(define-fun .def_255 () Bool (and .def_253 .def_254))
(define-fun .def_256 () Bool (and .def_110 .def_255))
(define-fun .def_257 () Bool (and .def_70 .def_256))
(define-fun .def_259 () Bool (and .def_257 .def_258))
(define-fun .def_261 () Bool (and .def_259 .def_260))
(define-fun .def_262 () Bool (and .def_188 .def_261))
(define-fun .def_264 () Bool (and .def_262 .def_263))
(define-fun .def_265 () Bool (and .def_120 .def_264))
(define-fun .def_266 () Bool (and .def_122 .def_265))
(define-fun .def_268 () Bool (and .def_266 .def_267))
(define-fun .def_269 () Bool (and .def_142 .def_268))
(define-fun .def_271 () Bool (and .def_269 .def_270))
(define-fun .def_273 () Bool (and .def_271 .def_272))
(define-fun .def_276 () Bool (and .def_273 .def_275))
(define-fun .def_637 () Bool (or .def_276 .def_636))
(define-fun .def_204 () Bool (<= |.y{61}| 0))
(define-fun .def_205 () Bool (not .def_204))
(define-fun .def_201 () Bool (<= |.y{59}| 0))
(define-fun .def_202 () Bool (not .def_201))
(define-fun .def_198 () Bool (<= |.y{67}| 0))
(define-fun .def_199 () Bool (not .def_198))
(define-fun .def_195 () Bool (<= |.y{56}| 0))
(define-fun .def_196 () Bool (not .def_195))
(define-fun .def_193 () Bool (= |.y{57}| 0))
(define-fun .def_183 () Bool (<= |.y{66}| 0))
(define-fun .def_184 () Bool (not .def_183))
(define-fun .def_180 () Bool (<= |.y{65}| 0))
(define-fun .def_181 () Bool (not .def_180))
(define-fun .def_175 () Bool (<= |.y{64}| 0))
(define-fun .def_176 () Bool (not .def_175))
(define-fun .def_172 () Bool (<= |.y{63}| 0))
(define-fun .def_173 () Bool (not .def_172))
(define-fun .def_169 () Bool (<= |.y{62}| 0))
(define-fun .def_170 () Bool (not .def_169))
(define-fun .def_171 () Bool (and |.loc{9}| .def_170))
(define-fun .def_174 () Bool (and .def_171 .def_173))
(define-fun .def_177 () Bool (and .def_174 .def_176))
(define-fun .def_178 () Bool (and .def_84 .def_177))
(define-fun .def_179 () Bool (and .def_88 .def_178))
(define-fun .def_182 () Bool (and .def_179 .def_181))
(define-fun .def_185 () Bool (and .def_182 .def_184))
(define-fun .def_186 () Bool (and .def_108 .def_185))
(define-fun .def_187 () Bool (and .def_110 .def_186))
(define-fun .def_189 () Bool (and .def_187 .def_188))
(define-fun .def_190 () Bool (and .def_113 .def_189))
(define-fun .def_191 () Bool (and .def_120 .def_190))
(define-fun .def_192 () Bool (and .def_122 .def_191))
(define-fun .def_194 () Bool (and .def_192 .def_193))
(define-fun .def_197 () Bool (and .def_194 .def_196))
(define-fun .def_200 () Bool (and .def_197 .def_199))
(define-fun .def_203 () Bool (and .def_200 .def_202))
(define-fun .def_206 () Bool (and .def_203 .def_205))
(define-fun .def_638 () Bool (or .def_206 .def_637))
(define-fun .def_167 () Bool (= .def_10 |.y{56}|))
(define-fun .def_163 () Int (+ .def_16 .def_160))
(define-fun .def_164 () Int (+ .def_12 .def_163))
(define-fun .def_165 () Bool (= .def_164 0))
(define-fun .def_153 () Bool (<= .def_10 0))
(define-fun .def_158 () Bool (not .def_153))
(define-fun .def_156 () Bool (or .def_153 .def_155))
(define-fun .def_149 () Int (+ .def_12 .def_148))
(define-fun .def_150 () Int (+ .def_10 .def_149))
(define-fun .def_151 () Bool (= .def_150 0))
(define-fun .def_140 () Bool (not .def_139))
(define-fun .def_130 () (Array Int Int) (store .def_14 |.x{563}| |.x{52}|))
(define-fun .def_131 () Bool (= |.y{58}| .def_130))
(define-fun .def_126 () (Array Int Int) (store .def_18 |.x{567}| |.x{52}|))
(define-fun .def_127 () Bool (= |.y{60}| .def_126))
(define-fun .def_116 () Int (* (- 1) |.y{57}|))
(define-fun .def_117 () Int (+ .def_12 .def_116))
(define-fun .def_118 () Bool (= .def_117 (- 1)))
(define-fun .def_106 () Bool (= .def_44 |.y{73}|))
(define-fun .def_104 () Bool (= .def_42 |.y{72}|))
(define-fun .def_102 () Bool (= .def_40 |.y{71}|))
(define-fun .def_98 () Bool (= .def_38 |.y{70}|))
(define-fun .def_96 () Bool (= .def_36 |.y{69}|))
(define-fun .def_92 () Bool (= .def_34 |.y{68}|))
(define-fun .def_90 () Bool (= .def_32 |.y{67}|))
(define-fun .def_86 () Bool (= .def_30 |.y{66}|))
(define-fun .def_82 () Bool (= .def_28 |.y{65}|))
(define-fun .def_80 () Bool (= .def_26 |.y{64}|))
(define-fun .def_77 () Bool (= .def_20 |.y{61}|))
(define-fun .def_76 () Bool (= .def_24 |.y{63}|))
(define-fun .def_78 () Bool (and .def_76 .def_77))
(define-fun .def_79 () Bool (and |.loc{9}| .def_78))
(define-fun .def_81 () Bool (and .def_79 .def_80))
(define-fun .def_83 () Bool (and .def_81 .def_82))
(define-fun .def_85 () Bool (and .def_83 .def_84))
(define-fun .def_87 () Bool (and .def_85 .def_86))
(define-fun .def_89 () Bool (and .def_87 .def_88))
(define-fun .def_91 () Bool (and .def_89 .def_90))
(define-fun .def_93 () Bool (and .def_91 .def_92))
(define-fun .def_95 () Bool (and .def_93 .def_94))
(define-fun .def_97 () Bool (and .def_95 .def_96))
(define-fun .def_99 () Bool (and .def_97 .def_98))
(define-fun .def_101 () Bool (and .def_99 .def_100))
(define-fun .def_103 () Bool (and .def_101 .def_102))
(define-fun .def_105 () Bool (and .def_103 .def_104))
(define-fun .def_107 () Bool (and .def_105 .def_106))
(define-fun .def_109 () Bool (and .def_107 .def_108))
(define-fun .def_111 () Bool (and .def_109 .def_110))
(define-fun .def_112 () Bool (and .def_68 .def_111))
(define-fun .def_114 () Bool (and .def_112 .def_113))
(define-fun .def_119 () Bool (and .def_114 .def_118))
(define-fun .def_121 () Bool (and .def_119 .def_120))
(define-fun .def_123 () Bool (and .def_121 .def_122))
(define-fun .def_128 () Bool (and .def_123 .def_127))
(define-fun .def_132 () Bool (and .def_128 .def_131))
(define-fun .def_138 () Bool (and .def_132 .def_137))
(define-fun .def_141 () Bool (and .def_138 .def_140))
(define-fun .def_143 () Bool (and .def_141 .def_142))
(define-fun .def_152 () Bool (and .def_143 .def_151))
(define-fun .def_157 () Bool (and .def_152 .def_156))
(define-fun .def_159 () Bool (and .def_157 .def_158))
(define-fun .def_166 () Bool (and .def_159 .def_165))
(define-fun .def_168 () Bool (and .def_166 .def_167))
(define-fun .def_639 () Bool (! (or .def_168 .def_638) :trans true))
(define-fun .def_643 () Bool (and .def_68 .def_113))
(define-fun .def_644 () Bool (and .def_122 .def_643))
(define-fun .def_645 () Bool (and .def_74 .def_644))
(define-fun .def_646 () Bool (! (not .def_645) :invar-property 0))
(assert true)
